nbV = 17;
nbE = 20;
map = [|false,false,false,false,false,false,false,false,false,false,false,false,false,false,false,false,false,false,false,true
|false,false,false,false,false,false,false,false,false,false,false,false,false,false,false,false,false,true,false,true
|false,true,false,false,false,false,false,false,false,false,false,false,false,false,false,false,false,false,false,false
|false,false,false,false,false,false,false,false,false,false,false,false,true,true,true,true,false,false,false,false
|false,false,false,false,false,false,false,false,true,true,true,false,false,false,false,false,false,false,false,false
|false,false,false,false,false,false,false,false,false,false,false,false,false,false,false,false,false,false,true,false
|true,false,false,false,false,false,false,false,false,false,false,false,false,false,false,false,false,false,false,false
|false,false,false,false,false,false,true,true,false,false,false,false,false,false,false,false,false,false,false,false
|false,false,true,true,false,false,false,false,false,false,false,false,false,false,false,false,false,false,false,false
|false,false,false,false,true,true,false,false,false,false,false,false,false,false,false,false,false,false,false,false
|false,true,false,true,false,true,false,false,false,false,false,false,false,false,false,false,false,false,false,false
|true,false,true,false,false,false,false,true,false,false,false,false,false,false,false,false,false,false,false,false
|false,false,false,false,true,false,false,false,true,false,false,false,false,false,false,true,false,false,false,false
|false,false,false,false,false,false,false,false,false,false,true,true,false,false,false,false,false,false,true,false
|false,false,false,false,false,false,false,false,false,true,false,true,false,false,true,false,false,false,false,false
|false,false,false,false,false,false,true,false,false,false,false,false,true,false,false,false,true,false,false,false
|false,false,false,false,false,false,false,false,false,false,false,false,false,true,false,false,true,true,false,false
|];
endnodes = [|false,false,false,false,false,false,true,false,false,false,false,true,false,false,false,false,false
|false,false,true,false,false,false,false,false,false,false,true,false,false,false,false,false,false
|false,false,false,false,false,false,false,false,true,false,false,true,false,false,false,false,false
|false,false,false,false,false,false,false,false,true,false,true,false,false,false,false,false,false
|false,false,false,false,false,false,false,false,false,true,false,false,true,false,false,false,false
|false,false,false,false,false,false,false,false,false,true,true,false,false,false,false,false,false
|false,false,false,false,false,false,false,true,false,false,false,false,false,false,false,true,false
|false,false,false,false,false,false,false,true,false,false,false,true,false,false,false,false,false
|false,false,false,false,true,false,false,false,false,false,false,false,true,false,false,false,false
|false,false,false,false,true,false,false,false,false,false,false,false,false,false,true,false,false
|false,false,false,false,true,false,false,false,false,false,false,false,false,true,false,false,false
|false,false,false,false,false,false,false,false,false,false,false,false,false,true,true,false,false
|false,false,false,true,false,false,false,false,false,false,false,false,false,false,false,true,false
|false,false,false,true,false,false,false,false,false,false,false,false,false,false,false,false,true
|false,false,false,true,false,false,false,false,false,false,false,false,false,false,true,false,false
|false,false,false,true,false,false,false,false,false,false,false,false,true,false,false,false,false
|false,false,false,false,false,false,false,false,false,false,false,false,false,false,false,true,true
|false,true,false,false,false,false,false,false,false,false,false,false,false,false,false,false,true
|false,false,false,false,false,true,false,false,false,false,false,false,false,true,false,false,false
|true,true,false,false,false,false,false,false,false,false,false,false,false,false,false,false,false
|];
terminals = {1,2,3,4,5,6,7,8,9,10};
link_cost = [2460294,346167,612566,415167,2244563,1722284,3731651,258478,3776236,1980013,2648943,668930,2984464,3676819,3776236,1980013,692355,92920,1645757,4616396];
